12 47
14 20
26 3
29 24
24 50
26 17
10 6
10 12
23 29
21 18
13 19
26 17
19 2
12 46
29 12
30 38
18 38
18 21
18 8
30 45
24 13
16 22
13 41
16 37
28 28
25 50
5 48
12 21
16 37
20 28
27 42
9 48
5 31
9 11
26 48
30 49
24 45
27 12
15 32
17 45
19 16
28 25
8 21
22 20
10 37
10 49
7 28
8 17
20 44
14 42
